NAME          
ROWS
 N  OBJ
 L  c1
 L  c2
 L  c3
COLUMNS
    MARKER    'MARKER'                 'INTORG'
    x[1]      c1        918
    x[1]      c2        68
    x[1]      c3        142
    x[1]      OBJ       -952
    x[2]      c1        624
    x[2]      c2        27
    x[2]      c3        978
    x[2]      OBJ       -219
    x[3]      c1        325
    x[3]      c2        389
    x[3]      c3        680
    x[3]      OBJ       -334
    x[4]      c1        249
    x[4]      c2        5
    x[4]      c3        718
    x[4]      OBJ       -805
    x[5]      c1        475
    x[5]      c2        749
    x[5]      c3        127
    x[5]      OBJ       -909
    x[6]      c1        16
    x[6]      c2        683
    x[6]      c3        706
    x[6]      OBJ       -65
    x[7]      c1        508
    x[7]      c2        789
    x[7]      c3        511
    x[7]      OBJ       -849
    x[8]      c1        332
    x[8]      c2        228
    x[8]      c3        74
    x[8]      OBJ       -306
    x[9]      c1        773
    x[9]      c2        290
    x[9]      c3        314
    x[9]      OBJ       -722
    x[10]     c1        529
    x[10]     c2        233
    x[10]     c3        755
    x[10]     OBJ       -284
    x[11]     c1        267
    x[11]     c2        524
    x[11]     c3        239
    x[11]     OBJ       -198
    x[12]     c1        748
    x[12]     c2        274
    x[12]     c3        732
    x[12]     OBJ       -740
    x[13]     c1        235
    x[13]     c2        104
    x[13]     c3        35
    x[13]     OBJ       -883
    x[14]     c1        141
    x[14]     c2        626
    x[14]     c3        262
    x[14]     OBJ       -130
    x[15]     c1        923
    x[15]     c2        955
    x[15]     c3        417
    x[15]     OBJ       -872
    x[16]     c1        175
    x[16]     c2        3
    x[16]     c3        950
    x[16]     OBJ       -959
    x[17]     c1        660
    x[17]     c2        368
    x[17]     c3        226
    x[17]     OBJ       -635
    x[18]     c1        873
    x[18]     c2        67
    x[18]     c3        913
    x[18]     OBJ       -12
    x[19]     c1        113
    x[19]     c2        613
    x[19]     c3        30
    x[19]     OBJ       -659
    x[20]     c1        32
    x[20]     c2        585
    x[20]     c3        271
    x[20]     OBJ       -450
    x[21]     c1        263
    x[21]     c2        280
    x[21]     c3        918
    x[21]     OBJ       -212
    x[22]     c1        537
    x[22]     c2        484
    x[22]     c3        238
    x[22]     OBJ       -8
    x[23]     c1        626
    x[23]     c2        94
    x[23]     c3        783
    x[23]     OBJ       -697
    x[24]     c1        662
    x[24]     c2        344
    x[24]     c3        506
    x[24]     OBJ       -560
    x[25]     c1        646
    x[25]     c2        476
    x[25]     c3        590
    x[25]     OBJ       -864
    x[26]     c1        587
    x[26]     c2        666
    x[26]     c3        327
    x[26]     OBJ       -481
    x[27]     c1        617
    x[27]     c2        247
    x[27]     c3        45
    x[27]     OBJ       -375
    x[28]     c1        790
    x[28]     c2        652
    x[28]     c3        150
    x[28]     OBJ       -564
    x[29]     c1        840
    x[29]     c2        106
    x[29]     c3        96
    x[29]     OBJ       -658
    x[30]     c1        388
    x[30]     c2        161
    x[30]     c3        115
    x[30]     OBJ       -171
    x[31]     c1        298
    x[31]     c2        892
    x[31]     c3        463
    x[31]     OBJ       -566
    x[32]     c1        681
    x[32]     c2        841
    x[32]     c3        445
    x[32]     OBJ       -648
    x[33]     c1        659
    x[33]     c2        92
    x[33]     c3        615
    x[33]     OBJ       -404
    x[34]     c1        320
    x[34]     c2        801
    x[34]     c3        268
    x[34]     OBJ       -407
    x[35]     c1        654
    x[35]     c2        709
    x[35]     c3        906
    x[35]     OBJ       -776
    x[36]     c1        811
    x[36]     c2        31
    x[36]     c3        594
    x[36]     OBJ       -420
    x[37]     c1        437
    x[37]     c2        411
    x[37]     c3        270
    x[37]     OBJ       -977
    x[38]     c1        260
    x[38]     c2        679
    x[38]     c3        150
    x[38]     OBJ       -488
    x[39]     c1        314
    x[39]     c2        381
    x[39]     c3        482
    x[39]     OBJ       -67
    x[40]     c1        82
    x[40]     c2        693
    x[40]     c3        38
    x[40]     OBJ       -922
    x[41]     c1        73
    x[41]     c2        32
    x[41]     c3        925
    x[41]     OBJ       -503
    x[42]     c1        852
    x[42]     c2        568
    x[42]     c3        472
    x[42]     OBJ       -15
    x[43]     c1        554
    x[43]     c2        920
    x[43]     c3        129
    x[43]     OBJ       -982
    x[44]     c1        27
    x[44]     c2        994
    x[44]     c3        632
    x[44]     OBJ       -815
    x[45]     c1        75
    x[45]     c2        599
    x[45]     c3        898
    x[45]     OBJ       -340
RHS
    rhs       c1        10484
    rhs       c2        9866
    rhs       c3        10068
RANGES
BOUNDS
 BV bounds    x[1]
 BV bounds    x[2]
 BV bounds    x[3]
 BV bounds    x[4]
 BV bounds    x[5]
 BV bounds    x[6]
 BV bounds    x[7]
 BV bounds    x[8]
 BV bounds    x[9]
 BV bounds    x[10]
 BV bounds    x[11]
 BV bounds    x[12]
 BV bounds    x[13]
 BV bounds    x[14]
 BV bounds    x[15]
 BV bounds    x[16]
 BV bounds    x[17]
 BV bounds    x[18]
 BV bounds    x[19]
 BV bounds    x[20]
 BV bounds    x[21]
 BV bounds    x[22]
 BV bounds    x[23]
 BV bounds    x[24]
 BV bounds    x[25]
 BV bounds    x[26]
 BV bounds    x[27]
 BV bounds    x[28]
 BV bounds    x[29]
 BV bounds    x[30]
 BV bounds    x[31]
 BV bounds    x[32]
 BV bounds    x[33]
 BV bounds    x[34]
 BV bounds    x[35]
 BV bounds    x[36]
 BV bounds    x[37]
 BV bounds    x[38]
 BV bounds    x[39]
 BV bounds    x[40]
 BV bounds    x[41]
 BV bounds    x[42]
 BV bounds    x[43]
 BV bounds    x[44]
 BV bounds    x[45]
ENDATA
